56127
7, 40, 51, 13, 43, 6, 3, 28, 55, 49, 26, 47, 54, 34, 53, 16, 39, 36, 46, 15, 52, 2, 45, 11, 31, 25, 27, 1, 33, 42, 18, 4, 30, 12, 14, 9, 10, 22, 29, 21, 23, 17, 48, 19, 44, 8, 38, 32, 41, 5, 35, 24, 50, 20, 37
